82 64 88 30 75 8 73 23 78 29 19 46 16 17 91 57 53 66 50 24 4 56 
83 51 71 27 36 33 72 90 67 48 58 89 55 
52 38 87 40 37 42 70 
7 69 45 81 65 14 68 80 43 5 84 34 
28 98 11 54 18 41 6 100 32 77 
61 63 9 15 62 2 94 99 31 20 47 13 22 26 1 
21 76 25 85 86 97 79 
39 96 
44 92 35 74 
95 49 10 59 12 60 3 93 

